p tw 36 49
1 2
1 7
7 13
13 14
13 19
19 20
19 25
25 26
31 32
2 3
2 8
8 9
8 14
14 15
14 20
20 21
20 26
26 27
32 33
3 4
9 10
9 15
15 16
15 21
21 27
27 28
4 5
4 10
10 11
10 16
16 22
22 28
28 29
28 34
34 35
5 6
5 11
11 12
11 17
17 18
17 23
23 24
23 29
29 30
29 35
35 36
6 12
12 18
30 36
